N = 510;
M = 1226;
Edge_Start = [1, 1, 2, 3, 3, 4, 5, 5, 7, 8, 9, 9, 10, 11, 11, 13, 13, 14, 15, 16, 17, 17, 18, 19, 19, 20, 21, 21, 23, 24, 25, 25, 26, 27, 27, 28, 29, 29, 30, 31, 32, 33, 33, 35, 35, 36, 37, 38, 39, 39, 40, 41, 42, 43, 43, 44, 45, 46, 47, 48, 49, 49, 50, 51, 51, 52, 53, 54, 55, 55, 57, 58, 59, 59, 60, 61, 61, 62, 63, 64, 64, 65, 66, 66, 68, 68, 69, 70, 70, 71, 72, 73, 74, 74, 75, 76, 77, 78, 78, 79, 80, 81, 82, 82, 84, 84, 85, 86, 86, 88, 88, 89, 90, 90, 92, 93, 94, 97, 97, 98, 99, 100, 101, 101, 102, 103, 103, 104, 105, 105, 106, 107, 107, 108, 109, 109, 111, 112, 113, 113, 114, 115, 115, 116, 117, 118, 119, 119, 121, 121, 122, 123, 123, 124, 125, 126, 127, 128, 128, 129, 130, 130, 131, 132, 132, 133, 134, 135, 136, 137, 138, 138, 139, 140, 140, 141, 142, 142, 143, 144, 144, 145, 146, 146, 147, 148, 149, 150, 150, 151, 152, 153, 154, 154, 155, 156, 156, 157, 158, 158, 160, 161, 161, 162, 163, 163, 164, 165, 166, 167, 168, 169, 169, 170, 171, 172, 173, 174, 175, 175, 176, 177, 178, 179, 179, 180, 181, 181, 183, 183, 184, 185, 187, 187, 189, 190, 192, 192, 193, 194, 194, 195, 197, 198, 198, 200, 200, 201, 202, 202, 204, 204, 205, 206, 206, 207, 208, 209, 210, 210, 211, 212, 212, 214, 214, 215, 216, 216, 218, 219, 220, 221, 222, 222, 224, 225, 227, 227, 229, 229, 231, 231, 232, 233, 234, 235, 235, 237, 238, 239, 239, 240, 241, 241, 242, 243, 243, 244, 245, 246, 247, 248, 249, 249, 251, 251, 252, 253, 253, 254, 255, 256, 256, 257, 258, 258, 259, 260, 261, 262, 263, 264, 265, 266, 266, 267, 268, 269, 270, 270, 271, 272, 272, 274, 274, 276, 277, 278, 279, 280, 280, 281, 282, 282, 283, 284, 284, 285, 286, 286, 288, 289, 289, 290, 291, 292, 293, 294, 295, 296, 297, 297, 298, 299, 300, 301, 301, 303, 303, 304, 305, 305, 306, 307, 308, 309, 309, 310, 311, 311, 313, 313, 314, 315, 315, 316, 317, 317, 318, 319, 320, 320, 321, 322, 322, 323, 324, 324, 325, 326, 327, 328, 328, 329, 330, 330, 331, 332, 332, 333, 334, 334, 335, 336, 336, 337, 338, 339, 340, 341, 342, 342, 344, 344, 346, 346, 347, 348, 348, 349, 350, 350, 352, 353, 353, 354, 355, 355, 356, 357, 358, 359, 360, 361, 361, 363, 363, 364, 365, 365, 366, 367, 367, 368, 369, 371, 372, 373, 374, 376, 377, 378, 379, 379, 380, 381, 381, 382, 383, 384, 384, 385, 386, 386, 387, 388, 388, 389, 390, 392, 392, 393, 394, 394, 395, 396, 396, 397, 398, 398, 399, 400, 401, 402, 403, 404, 405, 406, 406, 407, 408, 409, 410, 410, 411, 412, 413, 414, 414, 416, 417, 418, 419, 419, 420, 421, 421, 422, 423, 423, 424, 425, 426, 427, 427, 428, 430, 431, 431, 432, 433, 433, 434, 435, 436, 437, 438, 439, 441, 443, 443, 444, 445, 445, 446, 448, 449, 450, 450, 451, 452, 452, 454, 454, 455, 456, 456, 457, 458, 459, 460, 460, 461, 462, 462, 463, 464, 465, 466, 466, 468, 468, 469, 470, 470, 471, 472, 472, 474, 474, 475, 476, 476, 477, 478, 480, 481, 482, 483, 484, 486, 487, 488, 489, 490, 491, 492, 493, 494, 495, 497, 498, 499, 500, 501, 502, 503, 504, 505, 506, 507, 508, 509, 2, 32, 3, 4, 34, 5, 6, 36, 8, 9, 10, 40, 11, 12, 42, 14, 44, 15, 16, 17, 18, 48, 19, 20, 50, 21, 22, 52, 54, 25, 26, 56, 27, 28, 58, 29, 30, 60, 31, 62, 33, 34, 65, 36, 67, 37, 69, 39, 40, 71, 41, 42, 43, 44, 75, 45, 77, 47, 79, 49, 50, 81, 51, 52, 83, 53, 54, 55, 56, 87, 89, 59, 60, 91, 61, 62, 93, 63, 95, 65, 96, 66, 67, 98, 69, 100, 70, 71, 102, 72, 73, 74, 75, 106, 76, 108, 78, 79, 110, 80, 112, 82, 83, 114, 85, 116, 86, 87, 118, 89, 120, 90, 91, 122, 124, 94, 95, 98, 129, 99, 100, 101, 102, 133, 103, 104, 135, 105, 106, 137, 107, 108, 139, 109, 110, 141, 143, 113, 114, 145, 115, 116, 147, 117, 149, 119, 120, 151, 122, 153, 123, 124, 155, 125, 157, 127, 159, 129, 160, 130, 131, 162, 132, 133, 164, 134, 166, 136, 168, 138, 139, 170, 140, 141, 172, 142, 143, 174, 144, 145, 176, 146, 147, 178, 148, 149, 150, 151, 182, 152, 184, 154, 155, 186, 156, 157, 188, 158, 159, 190, 161, 162, 193, 163, 164, 195, 165, 166, 167, 168, 169, 170, 201, 171, 203, 173, 205, 175, 176, 207, 177, 209, 179, 180, 211, 181, 182, 213, 184, 215, 185, 186, 188, 219, 221, 191, 193, 224, 194, 195, 226, 196, 198, 199, 230, 201, 232, 202, 203, 234, 205, 236, 206, 207, 238, 208, 240, 210, 211, 242, 212, 213, 244, 215, 246, 216, 217, 248, 219, 220, 252, 222, 223, 254, 225, 226, 228, 259, 230, 261, 232, 263, 233, 234, 235, 236, 267, 238, 239, 240, 271, 241, 242, 273, 243, 244, 275, 245, 246, 247, 279, 249, 250, 281, 252, 283, 253, 254, 285, 255, 287, 257, 288, 258, 259, 290, 260, 292, 262, 263, 264, 296, 266, 267, 298, 268, 300, 270, 271, 302, 272, 273, 304, 275, 306, 308, 278, 279, 280, 281, 312, 282, 283, 314, 284, 285, 316, 286, 287, 318, 289, 290, 321, 291, 292, 293, 325, 295, 296, 297, 298, 329, 299, 331, 301, 302, 333, 304, 335, 305, 306, 337, 307, 339, 309, 310, 341, 311, 312, 343, 314, 345, 315, 316, 347, 317, 318, 349, 319, 351, 321, 352, 322, 323, 354, 324, 325, 356, 326, 327, 328, 329, 360, 330, 331, 362, 332, 333, 364, 334, 335, 366, 336, 337, 368, 338, 370, 340, 341, 342, 343, 374, 345, 376, 347, 378, 348, 349, 380, 350, 351, 382, 353, 354, 385, 355, 356, 387, 357, 358, 359, 391, 361, 362, 393, 364, 395, 365, 366, 397, 367, 368, 399, 369, 401, 403, 373, 374, 375, 377, 409, 379, 380, 411, 381, 382, 413, 383, 415, 385, 416, 386, 387, 418, 388, 389, 420, 390, 422, 393, 424, 394, 395, 426, 396, 397, 428, 398, 399, 430, 400, 401, 402, 403, 404, 436, 406, 407, 438, 408, 409, 410, 411, 442, 412, 444, 414, 415, 446, 417, 449, 419, 420, 451, 421, 422, 453, 423, 424, 455, 425, 426, 427, 428, 459, 429, 431, 432, 463, 433, 434, 465, 435, 467, 437, 438, 439, 440, 442, 444, 475, 445, 446, 477, 447, 480, 450, 451, 482, 452, 453, 484, 455, 486, 456, 457, 488, 458, 490, 460, 461, 492, 462, 463, 494, 464, 496, 466, 467, 498, 469, 500, 470, 471, 502, 472, 473, 504, 475, 506, 476, 477, 508, 478, 479, 481, 482, 483, 484, 485, 487, 488, 489, 490, 491, 492, 493, 494, 495, 496, 498, 499, 500, 501, 502, 503, 504, 505, 506, 507, 508, 509, 510];
Edge_End = [2, 32, 3, 4, 34, 5, 6, 36, 8, 9, 10, 40, 11, 12, 42, 14, 44, 15, 16, 17, 18, 48, 19, 20, 50, 21, 22, 52, 54, 25, 26, 56, 27, 28, 58, 29, 30, 60, 31, 62, 33, 34, 65, 36, 67, 37, 69, 39, 40, 71, 41, 42, 43, 44, 75, 45, 77, 47, 79, 49, 50, 81, 51, 52, 83, 53, 54, 55, 56, 87, 89, 59, 60, 91, 61, 62, 93, 63, 95, 65, 96, 66, 67, 98, 69, 100, 70, 71, 102, 72, 73, 74, 75, 106, 76, 108, 78, 79, 110, 80, 112, 82, 83, 114, 85, 116, 86, 87, 118, 89, 120, 90, 91, 122, 124, 94, 95, 98, 129, 99, 100, 101, 102, 133, 103, 104, 135, 105, 106, 137, 107, 108, 139, 109, 110, 141, 143, 113, 114, 145, 115, 116, 147, 117, 149, 119, 120, 151, 122, 153, 123, 124, 155, 125, 157, 127, 159, 129, 160, 130, 131, 162, 132, 133, 164, 134, 166, 136, 168, 138, 139, 170, 140, 141, 172, 142, 143, 174, 144, 145, 176, 146, 147, 178, 148, 149, 150, 151, 182, 152, 184, 154, 155, 186, 156, 157, 188, 158, 159, 190, 161, 162, 193, 163, 164, 195, 165, 166, 167, 168, 169, 170, 201, 171, 203, 173, 205, 175, 176, 207, 177, 209, 179, 180, 211, 181, 182, 213, 184, 215, 185, 186, 188, 219, 221, 191, 193, 224, 194, 195, 226, 196, 198, 199, 230, 201, 232, 202, 203, 234, 205, 236, 206, 207, 238, 208, 240, 210, 211, 242, 212, 213, 244, 215, 246, 216, 217, 248, 219, 220, 252, 222, 223, 254, 225, 226, 228, 259, 230, 261, 232, 263, 233, 234, 235, 236, 267, 238, 239, 240, 271, 241, 242, 273, 243, 244, 275, 245, 246, 247, 279, 249, 250, 281, 252, 283, 253, 254, 285, 255, 287, 257, 288, 258, 259, 290, 260, 292, 262, 263, 264, 296, 266, 267, 298, 268, 300, 270, 271, 302, 272, 273, 304, 275, 306, 308, 278, 279, 280, 281, 312, 282, 283, 314, 284, 285, 316, 286, 287, 318, 289, 290, 321, 291, 292, 293, 325, 295, 296, 297, 298, 329, 299, 331, 301, 302, 333, 304, 335, 305, 306, 337, 307, 339, 309, 310, 341, 311, 312, 343, 314, 345, 315, 316, 347, 317, 318, 349, 319, 351, 321, 352, 322, 323, 354, 324, 325, 356, 326, 327, 328, 329, 360, 330, 331, 362, 332, 333, 364, 334, 335, 366, 336, 337, 368, 338, 370, 340, 341, 342, 343, 374, 345, 376, 347, 378, 348, 349, 380, 350, 351, 382, 353, 354, 385, 355, 356, 387, 357, 358, 359, 391, 361, 362, 393, 364, 395, 365, 366, 397, 367, 368, 399, 369, 401, 403, 373, 374, 375, 377, 409, 379, 380, 411, 381, 382, 413, 383, 415, 385, 416, 386, 387, 418, 388, 389, 420, 390, 422, 393, 424, 394, 395, 426, 396, 397, 428, 398, 399, 430, 400, 401, 402, 403, 404, 436, 406, 407, 438, 408, 409, 410, 411, 442, 412, 444, 414, 415, 446, 417, 449, 419, 420, 451, 421, 422, 453, 423, 424, 455, 425, 426, 427, 428, 459, 429, 431, 432, 463, 433, 434, 465, 435, 467, 437, 438, 439, 440, 442, 444, 475, 445, 446, 477, 447, 480, 450, 451, 482, 452, 453, 484, 455, 486, 456, 457, 488, 458, 490, 460, 461, 492, 462, 463, 494, 464, 496, 466, 467, 498, 469, 500, 470, 471, 502, 472, 473, 504, 475, 506, 476, 477, 508, 478, 479, 481, 482, 483, 484, 485, 487, 488, 489, 490, 491, 492, 493, 494, 495, 496, 498, 499, 500, 501, 502, 503, 504, 505, 506, 507, 508, 509, 510, 1, 1, 2, 3, 3, 4, 5, 5, 7, 8, 9, 9, 10, 11, 11, 13, 13, 14, 15, 16, 17, 17, 18, 19, 19, 20, 21, 21, 23, 24, 25, 25, 26, 27, 27, 28, 29, 29, 30, 31, 32, 33, 33, 35, 35, 36, 37, 38, 39, 39, 40, 41, 42, 43, 43, 44, 45, 46, 47, 48, 49, 49, 50, 51, 51, 52, 53, 54, 55, 55, 57, 58, 59, 59, 60, 61, 61, 62, 63, 64, 64, 65, 66, 66, 68, 68, 69, 70, 70, 71, 72, 73, 74, 74, 75, 76, 77, 78, 78, 79, 80, 81, 82, 82, 84, 84, 85, 86, 86, 88, 88, 89, 90, 90, 92, 93, 94, 97, 97, 98, 99, 100, 101, 101, 102, 103, 103, 104, 105, 105, 106, 107, 107, 108, 109, 109, 111, 112, 113, 113, 114, 115, 115, 116, 117, 118, 119, 119, 121, 121, 122, 123, 123, 124, 125, 126, 127, 128, 128, 129, 130, 130, 131, 132, 132, 133, 134, 135, 136, 137, 138, 138, 139, 140, 140, 141, 142, 142, 143, 144, 144, 145, 146, 146, 147, 148, 149, 150, 150, 151, 152, 153, 154, 154, 155, 156, 156, 157, 158, 158, 160, 161, 161, 162, 163, 163, 164, 165, 166, 167, 168, 169, 169, 170, 171, 172, 173, 174, 175, 175, 176, 177, 178, 179, 179, 180, 181, 181, 183, 183, 184, 185, 187, 187, 189, 190, 192, 192, 193, 194, 194, 195, 197, 198, 198, 200, 200, 201, 202, 202, 204, 204, 205, 206, 206, 207, 208, 209, 210, 210, 211, 212, 212, 214, 214, 215, 216, 216, 218, 219, 220, 221, 222, 222, 224, 225, 227, 227, 229, 229, 231, 231, 232, 233, 234, 235, 235, 237, 238, 239, 239, 240, 241, 241, 242, 243, 243, 244, 245, 246, 247, 248, 249, 249, 251, 251, 252, 253, 253, 254, 255, 256, 256, 257, 258, 258, 259, 260, 261, 262, 263, 264, 265, 266, 266, 267, 268, 269, 270, 270, 271, 272, 272, 274, 274, 276, 277, 278, 279, 280, 280, 281, 282, 282, 283, 284, 284, 285, 286, 286, 288, 289, 289, 290, 291, 292, 293, 294, 295, 296, 297, 297, 298, 299, 300, 301, 301, 303, 303, 304, 305, 305, 306, 307, 308, 309, 309, 310, 311, 311, 313, 313, 314, 315, 315, 316, 317, 317, 318, 319, 320, 320, 321, 322, 322, 323, 324, 324, 325, 326, 327, 328, 328, 329, 330, 330, 331, 332, 332, 333, 334, 334, 335, 336, 336, 337, 338, 339, 340, 341, 342, 342, 344, 344, 346, 346, 347, 348, 348, 349, 350, 350, 352, 353, 353, 354, 355, 355, 356, 357, 358, 359, 360, 361, 361, 363, 363, 364, 365, 365, 366, 367, 367, 368, 369, 371, 372, 373, 374, 376, 377, 378, 379, 379, 380, 381, 381, 382, 383, 384, 384, 385, 386, 386, 387, 388, 388, 389, 390, 392, 392, 393, 394, 394, 395, 396, 396, 397, 398, 398, 399, 400, 401, 402, 403, 404, 405, 406, 406, 407, 408, 409, 410, 410, 411, 412, 413, 414, 414, 416, 417, 418, 419, 419, 420, 421, 421, 422, 423, 423, 424, 425, 426, 427, 427, 428, 430, 431, 431, 432, 433, 433, 434, 435, 436, 437, 438, 439, 441, 443, 443, 444, 445, 445, 446, 448, 449, 450, 450, 451, 452, 452, 454, 454, 455, 456, 456, 457, 458, 459, 460, 460, 461, 462, 462, 463, 464, 465, 466, 466, 468, 468, 469, 470, 470, 471, 472, 472, 474, 474, 475, 476, 476, 477, 478, 480, 481, 482, 483, 484, 486, 487, 488, 489, 490, 491, 492, 493, 494, 495, 497, 498, 499, 500, 501, 502, 503, 504, 505, 506, 507, 508, 509];
L = [17, 9, 18, 8, 6, 4, 5, 8, 18, 4, 12, 14, 18, 9, 15, 16, 14, 19, 8, 19, 12, 18, 15, 11, 13, 6, 7, 16, 2, 11, 17, 18, 12, 12, 4, 19, 17, 16, 5, 13, 3, 16, 7, 1, 17, 18, 3, 18, 5, 14, 18, 15, 15, 6, 10, 18, 11, 17, 2, 8, 7, 16, 9, 11, 3, 4, 10, 6, 4, 12, 17, 11, 10, 3, 13, 4, 9, 17, 19, 10, 4, 13, 10, 13, 1, 19, 19, 12, 7, 8, 4, 5, 2, 15, 2, 5, 1, 3, 1, 15, 6, 10, 17, 10, 6, 7, 2, 9, 19, 8, 2, 15, 10, 9, 6, 11, 9, 8, 13, 9, 3, 6, 17, 11, 16, 7, 12, 11, 6, 10, 8, 6, 18, 1, 8, 11, 7, 6, 17, 8, 11, 7, 10, 16, 13, 16, 15, 13, 1, 5, 7, 9, 19, 5, 7, 11, 15, 4, 19, 3, 16, 8, 7, 14, 8, 19, 11, 10, 2, 13, 10, 16, 17, 15, 4, 1, 8, 6, 19, 19, 12, 16, 19, 13, 15, 14, 1, 17, 14, 4, 6, 13, 11, 17, 4, 17, 17, 14, 14, 19, 12, 16, 13, 8, 6, 16, 11, 2, 16, 8, 10, 15, 6, 8, 1, 1, 10, 7, 17, 1, 13, 4, 19, 4, 11, 16, 1, 9, 4, 2, 2, 1, 17, 17, 17, 13, 6, 7, 3, 7, 11, 15, 4, 2, 10, 4, 10, 11, 5, 19, 9, 11, 10, 11, 8, 13, 5, 17, 4, 8, 8, 6, 1, 12, 2, 8, 16, 14, 1, 15, 11, 14, 7, 18, 4, 5, 1, 16, 2, 2, 15, 15, 4, 15, 2, 12, 8, 16, 3, 10, 14, 14, 14, 17, 17, 5, 5, 10, 5, 7, 13, 6, 11, 14, 13, 8, 5, 11, 5, 14, 7, 3, 8, 18, 15, 2, 5, 1, 4, 7, 7, 12, 1, 7, 16, 16, 15, 15, 8, 14, 3, 11, 18, 7, 2, 3, 4, 3, 18, 6, 5, 10, 4, 10, 3, 5, 7, 14, 3, 13, 15, 8, 10, 17, 1, 3, 11, 1, 15, 1, 9, 2, 11, 5, 1, 6, 13, 17, 15, 19, 2, 17, 5, 14, 9, 2, 2, 4, 14, 19, 3, 4, 7, 14, 16, 7, 14, 1, 11, 8, 11, 17, 3, 3, 19, 13, 16, 3, 16, 12, 1, 4, 1, 16, 13, 15, 13, 14, 1, 1, 1, 12, 4, 11, 12, 11, 14, 5, 16, 12, 15, 18, 7, 1, 9, 11, 2, 18, 11, 13, 10, 1, 17, 13, 10, 11, 14, 8, 17, 3, 10, 14, 1, 1, 18, 11, 14, 13, 6, 16, 6, 6, 3, 1, 1, 14, 19, 13, 1, 11, 17, 8, 16, 1, 15, 17, 4, 19, 3, 6, 15, 10, 14, 8, 5, 1, 12, 19, 8, 18, 3, 8, 14, 16, 10, 15, 9, 5, 10, 16, 16, 15, 6, 11, 17, 15, 12, 10, 7, 13, 4, 6, 4, 15, 9, 6, 15, 19, 5, 12, 9, 5, 2, 11, 16, 9, 2, 10, 6, 18, 3, 13, 17, 11, 16, 10, 16, 11, 19, 8, 17, 18, 8, 7, 15, 14, 17, 13, 4, 19, 10, 1, 9, 18, 4, 14, 13, 13, 2, 9, 1, 5, 16, 17, 18, 1, 9, 15, 7, 11, 12, 1, 5, 13, 7, 11, 19, 8, 5, 16, 19, 5, 15, 15, 16, 18, 9, 4, 1, 10, 5, 10, 18, 8, 14, 1, 16, 10, 4, 3, 1, 3, 3, 7, 13, 4, 4, 8, 18, 8, 12, 9, 15, 10, 12, 1, 14, 1, 16, 1, 2, 17, 7, 17, 9, 18, 8, 6, 4, 5, 8, 18, 4, 12, 14, 18, 9, 15, 16, 14, 19, 8, 19, 12, 18, 15, 11, 13, 6, 7, 16, 2, 11, 17, 18, 12, 12, 4, 19, 17, 16, 5, 13, 3, 16, 7, 1, 17, 18, 3, 18, 5, 14, 18, 15, 15, 6, 10, 18, 11, 17, 2, 8, 7, 16, 9, 11, 3, 4, 10, 6, 4, 12, 17, 11, 10, 3, 13, 4, 9, 17, 19, 10, 4, 13, 10, 13, 1, 19, 19, 12, 7, 8, 4, 5, 2, 15, 2, 5, 1, 3, 1, 15, 6, 10, 17, 10, 6, 7, 2, 9, 19, 8, 2, 15, 10, 9, 6, 11, 9, 8, 13, 9, 3, 6, 17, 11, 16, 7, 12, 11, 6, 10, 8, 6, 18, 1, 8, 11, 7, 6, 17, 8, 11, 7, 10, 16, 13, 16, 15, 13, 1, 5, 7, 9, 19, 5, 7, 11, 15, 4, 19, 3, 16, 8, 7, 14, 8, 19, 11, 10, 2, 13, 10, 16, 17, 15, 4, 1, 8, 6, 19, 19, 12, 16, 19, 13, 15, 14, 1, 17, 14, 4, 6, 13, 11, 17, 4, 17, 17, 14, 14, 19, 12, 16, 13, 8, 6, 16, 11, 2, 16, 8, 10, 15, 6, 8, 1, 1, 10, 7, 17, 1, 13, 4, 19, 4, 11, 16, 1, 9, 4, 2, 2, 1, 17, 17, 17, 13, 6, 7, 3, 7, 11, 15, 4, 2, 10, 4, 10, 11, 5, 19, 9, 11, 10, 11, 8, 13, 5, 17, 4, 8, 8, 6, 1, 12, 2, 8, 16, 14, 1, 15, 11, 14, 7, 18, 4, 5, 1, 16, 2, 2, 15, 15, 4, 15, 2, 12, 8, 16, 3, 10, 14, 14, 14, 17, 17, 5, 5, 10, 5, 7, 13, 6, 11, 14, 13, 8, 5, 11, 5, 14, 7, 3, 8, 18, 15, 2, 5, 1, 4, 7, 7, 12, 1, 7, 16, 16, 15, 15, 8, 14, 3, 11, 18, 7, 2, 3, 4, 3, 18, 6, 5, 10, 4, 10, 3, 5, 7, 14, 3, 13, 15, 8, 10, 17, 1, 3, 11, 1, 15, 1, 9, 2, 11, 5, 1, 6, 13, 17, 15, 19, 2, 17, 5, 14, 9, 2, 2, 4, 14, 19, 3, 4, 7, 14, 16, 7, 14, 1, 11, 8, 11, 17, 3, 3, 19, 13, 16, 3, 16, 12, 1, 4, 1, 16, 13, 15, 13, 14, 1, 1, 1, 12, 4, 11, 12, 11, 14, 5, 16, 12, 15, 18, 7, 1, 9, 11, 2, 18, 11, 13, 10, 1, 17, 13, 10, 11, 14, 8, 17, 3, 10, 14, 1, 1, 18, 11, 14, 13, 6, 16, 6, 6, 3, 1, 1, 14, 19, 13, 1, 11, 17, 8, 16, 1, 15, 17, 4, 19, 3, 6, 15, 10, 14, 8, 5, 1, 12, 19, 8, 18, 3, 8, 14, 16, 10, 15, 9, 5, 10, 16, 16, 15, 6, 11, 17, 15, 12, 10, 7, 13, 4, 6, 4, 15, 9, 6, 15, 19, 5, 12, 9, 5, 2, 11, 16, 9, 2, 10, 6, 18, 3, 13, 17, 11, 16, 10, 16, 11, 19, 8, 17, 18, 8, 7, 15, 14, 17, 13, 4, 19, 10, 1, 9, 18, 4, 14, 13, 13, 2, 9, 1, 5, 16, 17, 18, 1, 9, 15, 7, 11, 12, 1, 5, 13, 7, 11, 19, 8, 5, 16, 19, 5, 15, 15, 16, 18, 9, 4, 1, 10, 5, 10, 18, 8, 14, 1, 16, 10, 4, 3, 1, 3, 3, 7, 13, 4, 4, 8, 18, 8, 12, 9, 15, 10, 12, 1, 14, 1, 16, 1, 2, 17, 7];
T = [14, 9, 26, 10, 2, 1, 3, 3, 24, 5, 6, 16, 24, 5, 12, 9, 17, 11, 13, 17, 12, 14, 19, 12, 6, 5, 3, 14, 1, 10, 20, 8, 6, 8, 3, 22, 9, 18, 1, 7, 3, 15, 1, 2, 20, 16, 2, 18, 1, 13, 21, 4, 13, 17, 14, 13, 21, 18, 2, 1, 12, 15, 3, 7, 1, 10, 10, 6, 1, 13, 27, 11, 11, 1, 14, 2, 13, 18, 27, 11, 2, 13, 11, 12, 1, 20, 16, 9, 5, 14, 1, 4, 1, 12, 1, 9, 2, 4, 6, 12, 6, 10, 20, 12, 2, 5, 1, 1, 14, 8, 2, 13, 15, 13, 11, 22, 1, 1, 12, 1, 8, 7, 18, 14, 11, 7, 3, 16, 2, 8, 11, 9, 14, 1, 14, 8, 8, 5, 14, 1, 11, 6, 4, 17, 15, 25, 10, 1, 3, 6, 3, 12, 20, 1, 10, 12, 14, 1, 12, 9, 4, 12, 4, 14, 4, 23, 9, 3, 2, 14, 5, 16, 18, 15, 6, 3, 5, 3, 13, 17, 12, 11, 18, 18, 18, 1, 1, 11, 10, 1, 8, 2, 6, 18, 1, 10, 11, 5, 19, 24, 6, 15, 9, 12, 8, 14, 12, 1, 15, 12, 10, 11, 3, 9, 1, 2, 12, 7, 11, 7, 23, 1, 16, 2, 5, 7, 3, 6, 6, 10, 1, 2, 19, 15, 20, 7, 6, 9, 1, 5, 16, 20, 4, 16, 12, 3, 11, 16, 1, 20, 12, 11, 14, 14, 10, 13, 1, 16, 7, 15, 1, 4, 6, 11, 1, 6, 21, 16, 3, 16, 5, 17, 1, 25, 7, 6, 6, 14, 1, 1, 18, 21, 4, 8, 1, 12, 1, 4, 1, 1, 10, 1, 12, 21, 19, 8, 7, 11, 1, 8, 18, 1, 14, 15, 24, 7, 1, 1, 1, 12, 15, 1, 13, 29, 17, 7, 1, 3, 6, 3, 11, 5, 1, 9, 20, 16, 22, 21, 10, 12, 1, 4, 23, 1, 3, 4, 1, 1, 15, 1, 11, 12, 4, 12, 2, 3, 8, 13, 8, 5, 24, 14, 13, 22, 2, 1, 11, 2, 12, 7, 1, 1, 10, 8, 1, 17, 13, 28, 13, 22, 1, 17, 11, 15, 9, 2, 7, 1, 11, 20, 4, 1, 5, 18, 16, 8, 19, 2, 11, 11, 11, 15, 2, 7, 15, 15, 14, 15, 16, 17, 5, 3, 7, 21, 15, 13, 6, 12, 2, 2, 1, 10, 6, 5, 10, 12, 9, 1, 10, 10, 11, 19, 12, 3, 2, 13, 1, 15, 17, 16, 6, 1, 10, 17, 12, 17, 14, 3, 21, 3, 23, 3, 7, 1, 19, 5, 12, 16, 1, 19, 1, 10, 1, 4, 2, 18, 14, 21, 2, 5, 7, 8, 15, 9, 10, 15, 3, 20, 10, 8, 13, 10, 10, 2, 2, 1, 21, 17, 9, 22, 9, 5, 22, 11, 12, 12, 16, 20, 8, 9, 23, 11, 1, 1, 20, 19, 16, 12, 9, 9, 1, 2, 7, 17, 6, 13, 8, 12, 3, 9, 4, 1, 4, 15, 29, 10, 1, 5, 11, 17, 10, 12, 19, 4, 18, 15, 16, 20, 24, 2, 18, 8, 14, 3, 7, 11, 16, 6, 14, 22, 13, 7, 2, 22, 3, 12, 21, 18, 1, 19, 1, 13, 24, 20, 19, 1, 5, 26, 7, 6, 18, 1, 12, 20, 1, 4, 28, 10, 4, 11, 22, 5, 25, 29, 22, 16, 16, 5, 5, 4, 4, 5, 25, 12, 18, 1, 18, 21, 9, 4, 1, 2, 1, 4, 18, 1, 5, 5, 19, 14, 3, 13, 19, 6, 7, 1, 14, 1, 15, 10, 8, 16, 12, 14, 9, 26, 10, 2, 1, 3, 3, 24, 5, 6, 16, 24, 5, 12, 9, 17, 11, 13, 17, 12, 14, 19, 12, 6, 5, 3, 14, 1, 10, 20, 8, 6, 8, 3, 22, 9, 18, 1, 7, 3, 15, 1, 2, 20, 16, 2, 18, 1, 13, 21, 4, 13, 17, 14, 13, 21, 18, 2, 1, 12, 15, 3, 7, 1, 10, 10, 6, 1, 13, 27, 11, 11, 1, 14, 2, 13, 18, 27, 11, 2, 13, 11, 12, 1, 20, 16, 9, 5, 14, 1, 4, 1, 12, 1, 9, 2, 4, 6, 12, 6, 10, 20, 12, 2, 5, 1, 1, 14, 8, 2, 13, 15, 13, 11, 22, 1, 1, 12, 1, 8, 7, 18, 14, 11, 7, 3, 16, 2, 8, 11, 9, 14, 1, 14, 8, 8, 5, 14, 1, 11, 6, 4, 17, 15, 25, 10, 1, 3, 6, 3, 12, 20, 1, 10, 12, 14, 1, 12, 9, 4, 12, 4, 14, 4, 23, 9, 3, 2, 14, 5, 16, 18, 15, 6, 3, 5, 3, 13, 17, 12, 11, 18, 18, 18, 1, 1, 11, 10, 1, 8, 2, 6, 18, 1, 10, 11, 5, 19, 24, 6, 15, 9, 12, 8, 14, 12, 1, 15, 12, 10, 11, 3, 9, 1, 2, 12, 7, 11, 7, 23, 1, 16, 2, 5, 7, 3, 6, 6, 10, 1, 2, 19, 15, 20, 7, 6, 9, 1, 5, 16, 20, 4, 16, 12, 3, 11, 16, 1, 20, 12, 11, 14, 14, 10, 13, 1, 16, 7, 15, 1, 4, 6, 11, 1, 6, 21, 16, 3, 16, 5, 17, 1, 25, 7, 6, 6, 14, 1, 1, 18, 21, 4, 8, 1, 12, 1, 4, 1, 1, 10, 1, 12, 21, 19, 8, 7, 11, 1, 8, 18, 1, 14, 15, 24, 7, 1, 1, 1, 12, 15, 1, 13, 29, 17, 7, 1, 3, 6, 3, 11, 5, 1, 9, 20, 16, 22, 21, 10, 12, 1, 4, 23, 1, 3, 4, 1, 1, 15, 1, 11, 12, 4, 12, 2, 3, 8, 13, 8, 5, 24, 14, 13, 22, 2, 1, 11, 2, 12, 7, 1, 1, 10, 8, 1, 17, 13, 28, 13, 22, 1, 17, 11, 15, 9, 2, 7, 1, 11, 20, 4, 1, 5, 18, 16, 8, 19, 2, 11, 11, 11, 15, 2, 7, 15, 15, 14, 15, 16, 17, 5, 3, 7, 21, 15, 13, 6, 12, 2, 2, 1, 10, 6, 5, 10, 12, 9, 1, 10, 10, 11, 19, 12, 3, 2, 13, 1, 15, 17, 16, 6, 1, 10, 17, 12, 17, 14, 3, 21, 3, 23, 3, 7, 1, 19, 5, 12, 16, 1, 19, 1, 10, 1, 4, 2, 18, 14, 21, 2, 5, 7, 8, 15, 9, 10, 15, 3, 20, 10, 8, 13, 10, 10, 2, 2, 1, 21, 17, 9, 22, 9, 5, 22, 11, 12, 12, 16, 20, 8, 9, 23, 11, 1, 1, 20, 19, 16, 12, 9, 9, 1, 2, 7, 17, 6, 13, 8, 12, 3, 9, 4, 1, 4, 15, 29, 10, 1, 5, 11, 17, 10, 12, 19, 4, 18, 15, 16, 20, 24, 2, 18, 8, 14, 3, 7, 11, 16, 6, 14, 22, 13, 7, 2, 22, 3, 12, 21, 18, 1, 19, 1, 13, 24, 20, 19, 1, 5, 26, 7, 6, 18, 1, 12, 20, 1, 4, 28, 10, 4, 11, 22, 5, 25, 29, 22, 16, 16, 5, 5, 4, 4, 5, 25, 12, 18, 1, 18, 21, 9, 4, 1, 2, 1, 4, 18, 1, 5, 5, 19, 14, 3, 13, 19, 6, 7, 1, 14, 1, 15, 10, 8, 16, 12];
Lower_Bound = [0, 14, 29, 39, 40, 43, 145, 121, 116, 122, 137, 142, 154, 163, 174, 187, 204, 216, 220, 232, 232, 235, 224, 236, 226, 246, 252, 260, 282, 291, 292, 9, 12, 27, 45, 43, 59, 117, 99, 100, 121, 125, 120, 137, 150, 161, 143, 216, 215, 214, 211, 218, 228, 223, 217, 218, 271, 255, 266, 277, 291, 293, 311, 24, 13, 26, 37, 62, 61, 77, 86, 100, 101, 105, 106, 107, 139, 137, 141, 153, 200, 190, 210, 200, 202, 203, 204, 236, 244, 257, 267, 290, 304, 326, 327, 26, 39, 38, 39, 47, 54, 72, 83, 90, 106, 108, 119, 116, 117, 131, 141, 159, 164, 178, 189, 195, 212, 217, 224, 234, 261, 264, 267, 279, 280, 320, 308, 52, 51, 60, 64, 68, 68, 91, 86, 89, 114, 128, 133, 140, 125, 128, 133, 146, 163, 174, 192, 210, 211, 212, 223, 224, 255, 253, 259, 260, 270, 275, 294, 64, 70, 72, 80, 72, 84, 85, 100, 91, 101, 112, 121, 146, 148, 131, 138, 149, 172, 192, 199, 201, 205, 208, 233, 232, 233, 235, 290, 271, 338, 299, 306, 85, 79, 80, 85, 105, 184, 180, 196, 107, 104, 120, 121, 154, 160, 159, 145, 158, 173, 187, 194, 195, 199, 212, 223, 229, 250, 300, 297, 281, 318, 301, 302, 94, 101, 96, 234, 240, 167, 168, 136, 118, 122, 130, 131, 143, 165, 161, 160, 159, 160, 172, 191, 199, 210, 211, 219, 245, 246, 260, 276, 276, 275, 276, 288, 267, 266, 237, 220, 219, 166, 160, 157, 168, 142, 141, 132, 148, 201, 180, 170, 171, 175, 199, 198, 259, 239, 238, 237, 252, 253, 265, 269, 271, 274, 287, 295, 278, 254, 240, 218, 216, 215, 183, 181, 169, 162, 161, 171, 170, 171, 188, 200, 194, 203, 202, 213, 255, 246, 248, 249, 260, 281, 277, 282, 279, 287, 292, 303, 253, 242, 240, 233, 218, 204, 188, 171, 166, 163, 184, 179, 185, 184, 186, 187, 193, 198, 210, 228, 229, 239, 249, 260, 294, 282, 300, 298, 299, 289, 305, 311, 268, 272, 255, 247, 233, 254, 257, 280, 173, 180, 181, 192, 187, 197, 196, 197, 203, 207, 219, 229, 303, 289, 268, 270, 297, 302, 313, 317, 316, 321, 306, 326, 278, 270, 260, 250, 252, 253, 255, 283, 221, 199, 204, 204, 216, 216, 206, 198, 220, 209, 210, 211, 231, 293, 277, 289, 298, 299, 301, 308, 314, 324, 332, 336, 291, 300, 262, 263, 267, 256, 246, 241, 230, 227, 215, 234, 232, 247, 215, 231, 251, 253, 271, 278, 250, 257, 268, 284, 290, 332, 318, 349, 327, 334, 335, 338, 327, 304, 295, 277, 258, 257, 282, 258, 277, 278, 285, 252, 258, 276, 270, 255, 259, 261, 271, 275, 319, 341, 349, 363, 347, 363, 362, 362, 361, 356, 368, 386, 315, 314, 296, 280, 271, 275, 285, 284, 282, 282, 278, 260, 259, 264, 269, 288, 287, 285, 282, 295, 314, 320, 327, 328, 342, 343, 358, 368, 376, 392, 404];
Upper_Bound = [0, 14, 29, 39, 40, 43, 145, 121, 116, 122, 137, 142, 154, 163, 174, 187, 204, 216, 220, 232, 232, 235, 224, 236, 226, 246, 252, 260, 282, 291, 292, 9, 12, 27, 45, 43, 59, 117, 99, 100, 121, 125, 120, 137, 150, 161, 143, 216, 215, 214, 211, 218, 228, 223, 217, 218, 271, 255, 266, 277, 291, 293, 311, 24, 13, 26, 37, 62, 61, 77, 86, 100, 101, 105, 106, 107, 139, 137, 141, 153, 200, 190, 210, 200, 202, 203, 204, 236, 244, 257, 267, 290, 304, 326, 327, 26, 39, 38, 39, 47, 54, 72, 83, 90, 106, 108, 119, 116, 117, 131, 141, 159, 164, 178, 189, 195, 212, 217, 224, 234, 261, 264, 267, 279, 280, 320, 308, 52, 51, 60, 64, 68, 68, 91, 86, 89, 114, 128, 133, 140, 125, 128, 133, 146, 163, 174, 192, 210, 211, 212, 223, 224, 255, 253, 259, 260, 270, 275, 294, 64, 70, 72, 80, 72, 84, 85, 100, 91, 101, 112, 121, 146, 148, 131, 138, 149, 172, 192, 199, 201, 205, 208, 233, 232, 233, 235, 290, 271, 338, 299, 306, 85, 79, 80, 85, 105, 184, 180, 196, 107, 104, 120, 121, 154, 160, 159, 145, 158, 173, 187, 194, 195, 199, 212, 223, 229, 250, 300, 297, 281, 318, 301, 302, 94, 101, 96, 234, 240, 167, 168, 136, 118, 122, 130, 131, 143, 165, 161, 160, 159, 160, 172, 191, 199, 210, 211, 219, 245, 246, 260, 276, 276, 275, 276, 288, 267, 266, 237, 220, 219, 166, 160, 157, 168, 142, 141, 132, 148, 201, 180, 170, 171, 175, 199, 198, 259, 239, 238, 237, 252, 253, 265, 269, 271, 274, 287, 295, 278, 254, 240, 218, 216, 215, 183, 181, 169, 162, 161, 171, 170, 171, 188, 200, 194, 203, 202, 213, 255, 246, 248, 249, 260, 281, 277, 282, 279, 287, 292, 303, 253, 242, 240, 233, 218, 204, 188, 171, 166, 163, 184, 179, 185, 184, 186, 187, 193, 198, 210, 228, 229, 239, 249, 260, 294, 282, 300, 298, 299, 289, 305, 311, 268, 272, 255, 247, 233, 254, 257, 280, 173, 180, 181, 192, 187, 197, 196, 197, 203, 207, 219, 229, 303, 289, 268, 270, 297, 302, 313, 317, 316, 321, 306, 326, 278, 270, 260, 250, 252, 253, 255, 283, 221, 199, 204, 204, 216, 216, 206, 198, 220, 209, 210, 211, 231, 293, 277, 289, 298, 299, 301, 308, 314, 324, 332, 336, 291, 300, 262, 263, 267, 256, 246, 241, 230, 227, 215, 234, 232, 247, 215, 231, 251, 253, 271, 278, 250, 257, 268, 284, 290, 332, 318, 349, 327, 334, 335, 338, 327, 304, 295, 277, 258, 257, 282, 258, 277, 278, 285, 252, 258, 276, 270, 255, 259, 261, 271, 275, 319, 341, 349, 363, 347, 363, 362, 362, 361, 356, 368, 386, 315, 314, 296, 280, 271, 275, 285, 284, 282, 282, 278, 260, 259, 264, 269, 288, 287, 285, 282, 295, 314, 320, 327, 328, 342, 343, 358, 368, 376, 392, 404];
Start = 1;
End = 510;
Time = 404;
